NAME : sko-72.-711.tour
COMMENT : Length = -711
COMMENT : Found by LKH [Keld Helsgaun] Sun Apr 13 17:05:01 2025
TYPE : TOUR
DIMENSION : 72
TOUR_SECTION
1
7
23
14
65
53
50
67
9
34
2
52
47
26
21
18
56
3
43
24
54
27
38
35
42
51
37
12
31
60
64
48
49
29
44
55
4
72
69
45
5
22
32
41
20
58
19
68
66
25
11
62
61
36
15
40
33
46
59
13
10
8
17
39
63
28
70
30
57
71
6
16
-1
EOF
